# Solution for model GasLib-40
# Objective value = 1.0460424070036048e+01
loadshed[innode_1] 0
loadshed[innode_2] 0
loadshed[innode_3] 0
loadshed[innode_4] 0
loadshed[innode_5] 0
loadshed[innode_6] 0
loadshed[innode_7] 0
loadshed[innode_8] 0
loadshed[source_1] -2.5229209773766259e-01
loadshed[source_2] -7.8625461686441245e-02
loadshed[source_3] 3.9708496843276930e-01
loadshed[sink_1] 0
loadshed[sink_2] 0
loadshed[sink_3] 0
loadshed[sink_4] 0
loadshed[sink_5] 0
loadshed[sink_6] 0
loadshed[sink_7] 0
loadshed[sink_8] 0
loadshed[sink_9] 0
loadshed[sink_10] 0
loadshed[sink_11] 0
loadshed[sink_12] 6.3961828708500668e-01
loadshed[sink_13] 0
loadshed[sink_14] 0
loadshed[sink_15] 0
loadshed[sink_16] 0
loadshed[sink_17] 0
loadshed[sink_18] 0
loadshed[sink_19] 0
loadshed[sink_20] 0
loadshed[sink_21] 0
loadshed[sink_22] 0
loadshed[sink_23] 0
loadshed[sink_24] 0
loadshed[sink_25] 0
loadshed[sink_26] 0
loadshed[sink_27] 0
loadshed[sink_28] 0
loadshed[sink_29] 0
flow[source_1,sink_3] 1.9797520559026310e+02
flow[innode_1,sink_16] 1.6354166666666970e+01
flow[innode_6,sink_13] 1.9164161849818832e+01
flow[sink_13,sink_14] 2.8099951831521643e+00
flow[sink_14,sink_10] -1.3544171483514504e+01
flow[sink_25,sink_26] 1.7379765518370732e+02
flow[sink_26,sink_9] 1.2288133845867398e+02
flow[sink_9,sink_18] 1.0652717179200731e+02
flow[sink_26,sink_4] 3.4562150058366683e+01
flow[sink_4,sink_20] -2.8346087412923680e+01
flow[sink_18,sink_6] 9.0173005125340637e+01
flow[sink_25,innode_8] -1.6526687225692672e+02
flow[sink_6,sink_7] 4.1110505125340296e+01
flow[sink_6,sink_22] 3.2708333333333641e+01
flow[sink_7,sink_24] 3.8602075929963959e+01
flow[sink_22,sink_1] 1.6354166666666970e+01
flow[sink_24,sink_21] 2.2247909263297288e+01
flow[sink_21,sink_12] 5.8937425966306209e+00
flow[sink_7,sink_5] -1.3845737471290278e+01
flow[sink_5,sink_17] -3.0199904137956992e+01
flow[sink_17,sink_4] -4.6554070804623663e+01
flow[sink_17,sink_8] 0
flow[sink_3,sink_23] 16.3541666666697
flow[sink_8,sink_20] -1.6354166666668334e+01
flow[sink_25,sink_20] 6.1054420746258558e+01
flow[sink_25,sink_15] -1.0510353218952520e+02
flow[sink_15,sink_29] -6.7149323925485589e+01
flow[sink_29,sink_28] 1.6354166666667879e+01
flow[sink_29,sink_2] 7.0662541597373092e+01
flow[sink_2,sink_15] 5.4308374930706464e+01
flow[sink_29,innode_7] -1.7052019885619330e+02
flow[innode_4,sink_19] 7.8960838150181445e+01
flow[sink_19,innode_3] 0
flow[innode_4,innode_5] 1.6354166666679703e+01
flow[sink_27,innode_5] -1.6354166666679703e+01
flow[sink_27,sink_19] 0
flow[sink_10,sink_11] 3.2708333333333641e+01
flow[sink_10,innode_2] -6.2606671483514674e+01
flow[sink_10,innode_3] 0
flow[innode_6,sink_25] -1.9164161849818832e+01
flow[sink_11,innode_1] 1.6354166666666970e+01
flow[sink_19,innode_2] 6.2606671483514674e+01
flow[source_3,innode_4] 9.5315004816861148e+01
flow[source_2,innode_7] 1.7052019885619330e+02
flow[sink_3,innode_8] 1.6526687225692672e+02
pressure[innode_1] 7.4353622783644710e+01
pressure[innode_2] 7.7814345253173840e+01
pressure[innode_3] 7.7814345253173840e+01
pressure[innode_4] 81.01325
pressure[innode_5] 8.1002000741808786e+01
pressure[innode_6] 7.3975381345460221e+01
pressure[innode_7] 81.01325
pressure[innode_8] 8.0351494516981546e+01
pressure[source_1] 81.01325
pressure[source_2] 81.01325
pressure[source_3] 81.01325
pressure[sink_1] 4.6016713393253880e+01
pressure[sink_2] 7.4662540766531791e+01
pressure[sink_3] 8.0351494516981546e+01
pressure[sink_4] 5.7340593347316137e+01
pressure[sink_5] 53.3117757013659
pressure[sink_6] 4.8117791003641251e+01
pressure[sink_7] 4.7553441760883238e+01
pressure[sink_8] 5.8280538698452986e+01
pressure[sink_9] 5.4380149301818513e+01
pressure[sink_10] 7.4505324091248255e+01
pressure[sink_11] 7.4353622783644710e+01
pressure[sink_12] 1.0132499999999998e+00
pressure[sink_13] 7.3869732523811138e+01
pressure[sink_14] 7.3864703798072227e+01
pressure[sink_15] 7.4485235891756062e+01
pressure[sink_16] 7.3331972948827030e+01
pressure[sink_17] 5.5561450268466785e+01
pressure[sink_18] 50.5256787208069
pressure[sink_19] 7.7814345253173840e+01
pressure[sink_20] 5.9420194122041273e+01
pressure[sink_21] 3.1105661816699519e+00
pressure[sink_22] 4.7080482535608894e+01
pressure[sink_23] 8.0186776505321760e+01
pressure[sink_24] 3.3569411059880192e+00
pressure[sink_25] 7.3975381345460221e+01
pressure[sink_26] 6.1734914556574466e+01
pressure[sink_27] 8.0866291377726043e+01
pressure[sink_28] 7.6157220419091189e+01
pressure[sink_29] 7.6452502692708364e+01
interdiction[source_1,sink_3] 0
interdiction[innode_1,sink_16] 0
interdiction[innode_6,sink_13] 0
interdiction[sink_13,sink_14] 0
interdiction[sink_14,sink_10] 0
interdiction[sink_25,sink_26] 0
interdiction[sink_26,sink_9] 0
interdiction[sink_9,sink_18] 0
interdiction[sink_26,sink_4] 0
interdiction[sink_4,sink_20] 0
interdiction[sink_18,sink_6] 0
interdiction[sink_25,innode_8] 0
interdiction[sink_6,sink_7] 0
interdiction[sink_6,sink_22] 0
interdiction[sink_7,sink_24] 0
interdiction[sink_22,sink_1] 0
interdiction[sink_24,sink_21] 0
interdiction[sink_21,sink_12] 0
interdiction[sink_7,sink_5] 0
interdiction[sink_5,sink_17] 0
interdiction[sink_17,sink_4] 0
interdiction[sink_17,sink_8] 1
interdiction[sink_3,sink_23] 0
interdiction[sink_8,sink_20] 0
interdiction[sink_25,sink_20] 0
interdiction[sink_25,sink_15] 0
interdiction[sink_15,sink_29] 0
interdiction[sink_29,sink_28] 0
interdiction[sink_29,sink_2] 0
interdiction[sink_2,sink_15] 0
interdiction[sink_29,innode_7] 0
interdiction[innode_4,sink_19] 0
interdiction[sink_19,innode_3] 0
interdiction[innode_4,innode_5] 0
interdiction[sink_27,innode_5] 0
interdiction[sink_27,sink_19] 1
interdiction[sink_10,sink_11] 0
interdiction[sink_10,innode_2] 0
interdiction[sink_10,innode_3] 1
interdiction[innode_6,sink_25] 0
interdiction[sink_11,innode_1] 0
interdiction[sink_19,innode_2] 0
interdiction[source_3,innode_4] 0
interdiction[source_2,innode_7] 0
interdiction[sink_3,innode_8] 0
WCcheckFlow[source_1,sink_3] 39
WCcheckFlow[innode_1,sink_16] 1
WCcheckFlow[innode_6,sink_13] 13
WCcheckFlow[sink_13,sink_14] 12
WCcheckFlow[sink_14,sink_10] 11
WCcheckFlow[sink_25,sink_26] 15
WCcheckFlow[sink_26,sink_9] 11
WCcheckFlow[sink_9,sink_18] 10
WCcheckFlow[sink_26,sink_4] 3
WCcheckFlow[sink_4,sink_20] 2
WCcheckFlow[sink_18,sink_6] 9
WCcheckFlow[sink_25,innode_8] -36
WCcheckFlow[sink_6,sink_7] 6
WCcheckFlow[sink_6,sink_22] 2
WCcheckFlow[sink_7,sink_24] 3
WCcheckFlow[sink_22,sink_1] 1
WCcheckFlow[sink_24,sink_21] 2
WCcheckFlow[sink_21,sink_12] 1
WCcheckFlow[sink_7,sink_5] 2
WCcheckFlow[sink_5,sink_17] 1
WCcheckFlow[sink_17,sink_4] 0
WCcheckFlow[sink_17,sink_8] 0
WCcheckFlow[sink_3,sink_23] 1
WCcheckFlow[sink_8,sink_20] -1
WCcheckFlow[sink_25,sink_20] 0
WCcheckFlow[sink_25,sink_15] 6
WCcheckFlow[sink_15,sink_29] 5
WCcheckFlow[sink_29,sink_28] 1
WCcheckFlow[sink_29,sink_2] 1
WCcheckFlow[sink_2,sink_15] 0
WCcheckFlow[sink_29,innode_7] 2
WCcheckFlow[innode_4,sink_19] -4
WCcheckFlow[sink_19,innode_3] 1
WCcheckFlow[innode_4,innode_5] 2
WCcheckFlow[sink_27,innode_5] -1
WCcheckFlow[sink_27,sink_19] 0
WCcheckFlow[sink_10,sink_11] 3
WCcheckFlow[sink_10,innode_2] 7
WCcheckFlow[sink_10,innode_3] 0
WCcheckFlow[innode_6,sink_25] -14
WCcheckFlow[sink_11,innode_1] 2
WCcheckFlow[sink_19,innode_2] -6
WCcheckFlow[source_3,innode_4] -1
WCcheckFlow[source_2,innode_7] -1
WCcheckFlow[sink_3,innode_8] 37
